# Solution for model TR
# Objective value = 273
UsageL_0_0 0
UsageL_0_1 0
UsageL_0_2 1
UsageL_0_3 0
UsageL_0_4 0
UsageL_0_5 0
UsageL_0_6 0
UsageL_0_7 0
UsageL_0_8 1
UsageL_0_9 0
UsageL_1_0 0
UsageL_1_1 0
UsageL_1_2 0
UsageL_1_3 0
UsageL_1_4 0
UsageL_1_5 0
UsageL_1_6 0
UsageL_1_7 0
UsageL_1_8 0
UsageL_1_9 0
UsageL_2_0 0
UsageL_2_1 1
UsageL_2_2 0
UsageL_2_3 0
UsageL_2_4 0
UsageL_2_5 0
UsageL_2_6 1
UsageL_2_7 0
UsageL_2_8 0
UsageL_2_9 0
UsageL_3_0 0
UsageL_3_1 1
UsageL_3_2 0
UsageL_3_3 0
UsageL_3_4 0
UsageL_3_5 0
UsageL_3_6 1
UsageL_3_7 0
UsageL_3_8 0
UsageL_3_9 0
UsageL_4_0 0
UsageL_4_1 0
UsageL_4_2 1
UsageL_4_3 0
UsageL_4_4 0
UsageL_4_5 0
UsageL_4_6 0
UsageL_4_7 0
UsageL_4_8 0
UsageL_4_9 0
UsageL_5_0 0
UsageL_5_1 0
UsageL_5_2 0
UsageL_5_3 0
UsageL_5_4 0
UsageL_5_5 0
UsageL_5_6 0
UsageL_5_7 0
UsageL_5_8 1
UsageL_5_9 0
UsageL_6_0 0
UsageL_6_1 1
UsageL_6_2 0
UsageL_6_3 0
UsageL_6_4 0
UsageL_6_5 0
UsageL_6_6 1
UsageL_6_7 0
UsageL_6_8 0
UsageL_6_9 0
UsageL_7_0 0
UsageL_7_1 0
UsageL_7_2 0
UsageL_7_3 0
UsageL_7_4 1
UsageL_7_5 0
UsageL_7_6 0
UsageL_7_7 0
UsageL_7_8 0
UsageL_7_9 0
UsageL_8_0 0
UsageL_8_1 0
UsageL_8_2 0
UsageL_8_3 0
UsageL_8_4 0
UsageL_8_5 0
UsageL_8_6 0
UsageL_8_7 0
UsageL_8_8 0
UsageL_8_9 0
UsageL_9_0 0
UsageL_9_1 0
UsageL_9_2 0
UsageL_9_3 0
UsageL_9_4 0
UsageL_9_5 0
UsageL_9_6 0
UsageL_9_7 0
UsageL_9_8 0
UsageL_9_9 0
UsageL_10_0 0
UsageL_10_1 0
UsageL_10_2 0
UsageL_10_3 0
UsageL_10_4 1
UsageL_10_5 0
UsageL_10_6 0
UsageL_10_7 0
UsageL_10_8 0
UsageL_10_9 0
UsageL_11_0 0
UsageL_11_1 0
UsageL_11_2 0
UsageL_11_3 0
UsageL_11_4 0
UsageL_11_5 0
UsageL_11_6 0
UsageL_11_7 0
UsageL_11_8 0
UsageL_11_9 0
UsageL_12_0 0
UsageL_12_1 0
UsageL_12_2 0
UsageL_12_3 0
UsageL_12_4 0
UsageL_12_5 0
UsageL_12_6 0
UsageL_12_7 0
UsageL_12_8 0
UsageL_12_9 1
UsageL_13_0 0
UsageL_13_1 0
UsageL_13_2 0
UsageL_13_3 1
UsageL_13_4 0
UsageL_13_5 0
UsageL_13_6 0
UsageL_13_7 0
UsageL_13_8 0
UsageL_13_9 0
UsageL_14_0 0
UsageL_14_1 0
UsageL_14_2 0
UsageL_14_3 0
UsageL_14_4 1
UsageL_14_5 0
UsageL_14_6 0
UsageL_14_7 0
UsageL_14_8 0
UsageL_14_9 0
UsageL_15_0 0
UsageL_15_1 0
UsageL_15_2 0
UsageL_15_3 0
UsageL_15_4 0
UsageL_15_5 0
UsageL_15_6 0
UsageL_15_7 1
UsageL_15_8 0
UsageL_15_9 0
UsageL_16_0 0
UsageL_16_1 0
UsageL_16_2 0
UsageL_16_3 0
UsageL_16_4 0
UsageL_16_5 0
UsageL_16_6 1
UsageL_16_7 0
UsageL_16_8 0
UsageL_16_9 0
UsageL_17_0 0
UsageL_17_1 0
UsageL_17_2 0
UsageL_17_3 0
UsageL_17_4 0
UsageL_17_5 0
UsageL_17_6 0
UsageL_17_7 0
UsageL_17_8 0
UsageL_17_9 0
UsageL_18_0 0
UsageL_18_1 0
UsageL_18_2 0
UsageL_18_3 0
UsageL_18_4 0
UsageL_18_5 0
UsageL_18_6 0
UsageL_18_7 0
UsageL_18_8 0
UsageL_18_9 0
UsageL_19_0 0
UsageL_19_1 0
UsageL_19_2 0
UsageL_19_3 0
UsageL_19_4 0
UsageL_19_5 1
UsageL_19_6 0
UsageL_19_7 0
UsageL_19_8 0
UsageL_19_9 0
UsageL_20_0 0
UsageL_20_1 0
UsageL_20_2 0
UsageL_20_3 0
UsageL_20_4 0
UsageL_20_5 0
UsageL_20_6 0
UsageL_20_7 0
UsageL_20_8 0
UsageL_20_9 0
UsageL_21_0 0
UsageL_21_1 0
UsageL_21_2 0
UsageL_21_3 1
UsageL_21_4 0
UsageL_21_5 0
UsageL_21_6 0
UsageL_21_7 0
UsageL_21_8 0
UsageL_21_9 0
UsageL_22_0 0
UsageL_22_1 0
UsageL_22_2 0
UsageL_22_3 0
UsageL_22_4 0
UsageL_22_5 0
UsageL_22_6 1
UsageL_22_7 0
UsageL_22_8 0
UsageL_22_9 0
UsageL_23_0 0
UsageL_23_1 0
UsageL_23_2 0
UsageL_23_3 0
UsageL_23_4 0
UsageL_23_5 0
UsageL_23_6 0
UsageL_23_7 0
UsageL_23_8 0
UsageL_23_9 0
UsageL_24_0 0
UsageL_24_1 0
UsageL_24_2 0
UsageL_24_3 0
UsageL_24_4 0
UsageL_24_5 0
UsageL_24_6 0
UsageL_24_7 0
UsageL_24_8 0
UsageL_24_9 0
UsageL_25_0 0
UsageL_25_1 0
UsageL_25_2 0
UsageL_25_3 0
UsageL_25_4 0
UsageL_25_5 0
UsageL_25_6 1
UsageL_25_7 1
UsageL_25_8 0
UsageL_25_9 0
UsageL_26_0 0
UsageL_26_1 0
UsageL_26_2 0
UsageL_26_3 1
UsageL_26_4 0
UsageL_26_5 0
UsageL_26_6 1
UsageL_26_7 0
UsageL_26_8 0
UsageL_26_9 0
UsageL_27_0 0
UsageL_27_1 0
UsageL_27_2 0
UsageL_27_3 0
UsageL_27_4 0
UsageL_27_5 0
UsageL_27_6 0
UsageL_27_7 0
UsageL_27_8 0
UsageL_27_9 0
UsageL_28_0 0
UsageL_28_1 1
UsageL_28_2 0
UsageL_28_3 0
UsageL_28_4 0
UsageL_28_5 0
UsageL_28_6 0
UsageL_28_7 0
UsageL_28_8 0
UsageL_28_9 0
UsageL_29_0 0
UsageL_29_1 0
UsageL_29_2 0
UsageL_29_3 1
UsageL_29_4 0
UsageL_29_5 0
UsageL_29_6 0
UsageL_29_7 0
UsageL_29_8 0
UsageL_29_9 0
UsageL_30_0 0
UsageL_30_1 1
UsageL_30_2 0
UsageL_30_3 0
UsageL_30_4 0
UsageL_30_5 0
UsageL_30_6 1
UsageL_30_7 0
UsageL_30_8 0
UsageL_30_9 0
UsageL_31_0 1
UsageL_31_1 0
UsageL_31_2 0
UsageL_31_3 0
UsageL_31_4 0
UsageL_31_5 0
UsageL_31_6 0
UsageL_31_7 0
UsageL_31_8 0
UsageL_31_9 0
UsageL_32_0 0
UsageL_32_1 1
UsageL_32_2 0
UsageL_32_3 1
UsageL_32_4 0
UsageL_32_5 0
UsageL_32_6 1
UsageL_32_7 0
UsageL_32_8 0
UsageL_32_9 0
UsageL_33_0 1
UsageL_33_1 0
UsageL_33_2 0
UsageL_33_3 0
UsageL_33_4 0
UsageL_33_5 0
UsageL_33_6 0
UsageL_33_7 0
UsageL_33_8 0
UsageL_33_9 0
UsageL_34_0 0
UsageL_34_1 0
UsageL_34_2 0
UsageL_34_3 0
UsageL_34_4 0
UsageL_34_5 0
UsageL_34_6 0
UsageL_34_7 0
UsageL_34_8 0
UsageL_34_9 0
UsageL_35_0 0
UsageL_35_1 0
UsageL_35_2 1
UsageL_35_3 0
UsageL_35_4 0
UsageL_35_5 0
UsageL_35_6 0
UsageL_35_7 0
UsageL_35_8 0
UsageL_35_9 0
UsageL_36_0 0
UsageL_36_1 0
UsageL_36_2 0
UsageL_36_3 0
UsageL_36_4 0
UsageL_36_5 0
UsageL_36_6 1
UsageL_36_7 0
UsageL_36_8 0
UsageL_36_9 0
UsageL_37_0 0
UsageL_37_1 1
UsageL_37_2 0
UsageL_37_3 0
UsageL_37_4 0
UsageL_37_5 0
UsageL_37_6 0
UsageL_37_7 0
UsageL_37_8 0
UsageL_37_9 0
UsageL_38_0 0
UsageL_38_1 1
UsageL_38_2 0
UsageL_38_3 0
UsageL_38_4 0
UsageL_38_5 0
UsageL_38_6 0
UsageL_38_7 0
UsageL_38_8 0
UsageL_38_9 0
UsageL_39_0 0
UsageL_39_1 0
UsageL_39_2 0
UsageL_39_3 0
UsageL_39_4 0
UsageL_39_5 0
UsageL_39_6 0
UsageL_39_7 0
UsageL_39_8 0
UsageL_39_9 0
UsageL_40_0 1
UsageL_40_1 0
UsageL_40_2 0
UsageL_40_3 0
UsageL_40_4 0
UsageL_40_5 0
UsageL_40_6 0
UsageL_40_7 0
UsageL_40_8 0
UsageL_40_9 0
UsageL_41_0 0
UsageL_41_1 1
UsageL_41_2 0
UsageL_41_3 0
UsageL_41_4 0
UsageL_41_5 0
UsageL_41_6 0
UsageL_41_7 0
UsageL_41_8 0
UsageL_41_9 0
UsageL_42_0 0
UsageL_42_1 1
UsageL_42_2 0
UsageL_42_3 0
UsageL_42_4 0
UsageL_42_5 0
UsageL_42_6 1
UsageL_42_7 0
UsageL_42_8 0
UsageL_42_9 0
UsageL_43_0 0
UsageL_43_1 0
UsageL_43_2 0
UsageL_43_3 0
UsageL_43_4 0
UsageL_43_5 0
UsageL_43_6 0
UsageL_43_7 0
UsageL_43_8 0
UsageL_43_9 0
UsageL_44_0 0
UsageL_44_1 0
UsageL_44_2 0
UsageL_44_3 0
UsageL_44_4 0
UsageL_44_5 0
UsageL_44_6 0
UsageL_44_7 1
UsageL_44_8 0
UsageL_44_9 0
UsageL_45_0 0
UsageL_45_1 0
UsageL_45_2 0
UsageL_45_3 0
UsageL_45_4 0
UsageL_45_5 0
UsageL_45_6 0
UsageL_45_7 0
UsageL_45_8 1
UsageL_45_9 0
Fstart_0 0
Fstart_1 0
Fstart_2 0
Fstart_3 74
Fstart_4 0
Fstart_5 0
Fstart_6 182
Fstart_7 0
Fstart_8 62
Fstart_9 0
Delta_0_1 0
Delta_0_2 0
Delta_0_3 0
Delta_0_4 0
Delta_0_5 0
Delta_0_6 1
Delta_0_7 0
Delta_0_8 0
Delta_0_9 1
Delta_1_0 1
Delta_1_2 1
Delta_1_3 1
Delta_1_4 1
Delta_1_5 1
Delta_1_6 1
Delta_1_7 0
Delta_1_8 0
Delta_1_9 0
Delta_2_0 1
Delta_2_1 0
Delta_2_3 1
Delta_2_4 0
Delta_2_5 1
Delta_2_6 1
Delta_2_7 1
Delta_2_8 1
Delta_2_9 0
Delta_3_0 1
Delta_3_1 0
Delta_3_2 0
Delta_3_4 0
Delta_3_5 1
Delta_3_6 1
Delta_3_7 0
Delta_3_8 0
Delta_3_9 1
Delta_4_0 1
Delta_4_1 0
Delta_4_2 1
Delta_4_3 1
Delta_4_5 1
Delta_4_6 0
Delta_4_7 0
Delta_4_8 1
Delta_4_9 1
Delta_5_0 1
Delta_5_1 0
Delta_5_2 0
Delta_5_3 0
Delta_5_4 0
Delta_5_6 1
Delta_5_7 0
Delta_5_8 0
Delta_5_9 1
Delta_6_0 0
Delta_6_1 0
Delta_6_2 0
Delta_6_3 0
Delta_6_4 1
Delta_6_5 0
Delta_6_7 0
Delta_6_8 0
Delta_6_9 1
Delta_7_0 1
Delta_7_1 1
Delta_7_2 0
Delta_7_3 1
Delta_7_4 1
Delta_7_5 1
Delta_7_6 1
Delta_7_8 1
Delta_7_9 1
Delta_8_0 1
Delta_8_1 1
Delta_8_2 0
Delta_8_3 1
Delta_8_4 0
Delta_8_5 1
Delta_8_6 1
Delta_8_7 0
Delta_8_9 1
Delta_9_0 0
Delta_9_1 1
Delta_9_2 1
Delta_9_3 0
Delta_9_4 0
Delta_9_5 0
Delta_9_6 0
Delta_9_7 0
Delta_9_8 0
U_0_0 0
U_0_1 0
U_0_2 3
U_0_3 0
U_0_4 0
U_0_5 0
U_0_6 0
U_0_7 0
U_0_8 0
U_0_9 0
U_1_0 0
U_1_1 0
U_1_2 0
U_1_3 0
U_1_4 0
U_1_5 0
U_1_6 0
U_1_7 0
U_1_8 0
U_1_9 0
U_2_0 0
U_2_1 6
U_2_2 0
U_2_3 0
U_2_4 0
U_2_5 0
U_2_6 1
U_2_7 0
U_2_8 0
U_2_9 0
U_3_0 0
U_3_1 5
U_3_2 0
U_3_3 0
U_3_4 0
U_3_5 0
U_3_6 3
U_3_7 0
U_3_8 0
U_3_9 0
U_4_0 0
U_4_1 0
U_4_2 1
U_4_3 0
U_4_4 0
U_4_5 0
U_4_6 0
U_4_7 0
U_4_8 0
U_4_9 0
U_5_0 0
U_5_1 0
U_5_2 0
U_5_3 0
U_5_4 0
U_5_5 0
U_5_6 0
U_5_7 0
U_5_8 1
U_5_9 0
U_6_0 0
U_6_1 3
U_6_2 0
U_6_3 0
U_6_4 0
U_6_5 0
U_6_6 3
U_6_7 0
U_6_8 0
U_6_9 0
U_7_0 0
U_7_1 0
U_7_2 0
U_7_3 0
U_7_4 0
U_7_5 0
U_7_6 0
U_7_7 0
U_7_8 0
U_7_9 0
U_8_0 0
U_8_1 0
U_8_2 0
U_8_3 0
U_8_4 0
U_8_5 0
U_8_6 0
U_8_7 0
U_8_8 0
U_8_9 0
U_9_0 0
U_9_1 0
U_9_2 0
U_9_3 0
U_9_4 0
U_9_5 0
U_9_6 0
U_9_7 0
U_9_8 0
U_9_9 0
U_10_0 0
U_10_1 0
U_10_2 0
U_10_3 0
U_10_4 2
U_10_5 0
U_10_6 0
U_10_7 0
U_10_8 0
U_10_9 0
U_11_0 0
U_11_1 0
U_11_2 0
U_11_3 0
U_11_4 0
U_11_5 0
U_11_6 0
U_11_7 0
U_11_8 0
U_11_9 0
U_12_0 0
U_12_1 0
U_12_2 0
U_12_3 0
U_12_4 0
U_12_5 0
U_12_6 0
U_12_7 0
U_12_8 0
U_12_9 0
U_13_0 0
U_13_1 0
U_13_2 0
U_13_3 2
U_13_4 0
U_13_5 0
U_13_6 0
U_13_7 0
U_13_8 0
U_13_9 0
U_14_0 0
U_14_1 0
U_14_2 0
U_14_3 0
U_14_4 3
U_14_5 0
U_14_6 0
U_14_7 0
U_14_8 0
U_14_9 0
U_15_0 0
U_15_1 0
U_15_2 0
U_15_3 0
U_15_4 0
U_15_5 0
U_15_6 0
U_15_7 2
U_15_8 0
U_15_9 0
U_16_0 0
U_16_1 0
U_16_2 0
U_16_3 0
U_16_4 0
U_16_5 0
U_16_6 2
U_16_7 0
U_16_8 0
U_16_9 0
U_17_0 0
U_17_1 0
U_17_2 0
U_17_3 0
U_17_4 0
U_17_5 0
U_17_6 0
U_17_7 0
U_17_8 0
U_17_9 0
U_18_0 0
U_18_1 0
U_18_2 0
U_18_3 0
U_18_4 0
U_18_5 0
U_18_6 0
U_18_7 0
U_18_8 0
U_18_9 0
U_19_0 0
U_19_1 0
U_19_2 0
U_19_3 0
U_19_4 0
U_19_5 0
U_19_6 0
U_19_7 0
U_19_8 0
U_19_9 0
U_20_0 0
U_20_1 0
U_20_2 0
U_20_3 0
U_20_4 0
U_20_5 0
U_20_6 0
U_20_7 0
U_20_8 0
U_20_9 0
U_21_0 0
U_21_1 0
U_21_2 0
U_21_3 2
U_21_4 0
U_21_5 0
U_21_6 0
U_21_7 0
U_21_8 0
U_21_9 0
U_22_0 0
U_22_1 0
U_22_2 0
U_22_3 0
U_22_4 0
U_22_5 0
U_22_6 2
U_22_7 0
U_22_8 0
U_22_9 0
U_23_0 0
U_23_1 0
U_23_2 0
U_23_3 0
U_23_4 0
U_23_5 0
U_23_6 0
U_23_7 0
U_23_8 0
U_23_9 0
U_24_0 0
U_24_1 0
U_24_2 0
U_24_3 0
U_24_4 0
U_24_5 0
U_24_6 0
U_24_7 0
U_24_8 0
U_24_9 0
U_25_0 0
U_25_1 0
U_25_2 0
U_25_3 0
U_25_4 0
U_25_5 0
U_25_6 4
U_25_7 3
U_25_8 0
U_25_9 0
U_26_0 0
U_26_1 0
U_26_2 0
U_26_3 2
U_26_4 0
U_26_5 0
U_26_6 4
U_26_7 0
U_26_8 0
U_26_9 0
U_27_0 0
U_27_1 0
U_27_2 0
U_27_3 0
U_27_4 0
U_27_5 0
U_27_6 0
U_27_7 0
U_27_8 0
U_27_9 0
U_28_0 0
U_28_1 3
U_28_2 0
U_28_3 0
U_28_4 0
U_28_5 0
U_28_6 0
U_28_7 0
U_28_8 0
U_28_9 0
U_29_0 0
U_29_1 0
U_29_2 0
U_29_3 0
U_29_4 0
U_29_5 0
U_29_6 0
U_29_7 0
U_29_8 0
U_29_9 0
U_30_0 0
U_30_1 0
U_30_2 0
U_30_3 0
U_30_4 0
U_30_5 0
U_30_6 1
U_30_7 0
U_30_8 0
U_30_9 0
U_31_0 1
U_31_1 0
U_31_2 0
U_31_3 0
U_31_4 0
U_31_5 0
U_31_6 0
U_31_7 0
U_31_8 0
U_31_9 0
U_32_0 0
U_32_1 1
U_32_2 0
U_32_3 1
U_32_4 0
U_32_5 0
U_32_6 0
U_32_7 0
U_32_8 0
U_32_9 0
U_33_0 0
U_33_1 0
U_33_2 0
U_33_3 0
U_33_4 0
U_33_5 0
U_33_6 0
U_33_7 0
U_33_8 0
U_33_9 0
U_34_0 0
U_34_1 0
U_34_2 0
U_34_3 0
U_34_4 0
U_34_5 0
U_34_6 0
U_34_7 0
U_34_8 0
U_34_9 0
U_35_0 0
U_35_1 0
U_35_2 0
U_35_3 0
U_35_4 0
U_35_5 0
U_35_6 0
U_35_7 0
U_35_8 0
U_35_9 0
U_36_0 0
U_36_1 0
U_36_2 0
U_36_3 0
U_36_4 0
U_36_5 0
U_36_6 1
U_36_7 0
U_36_8 0
U_36_9 0
U_37_0 0
U_37_1 1
U_37_2 0
U_37_3 0
U_37_4 0
U_37_5 0
U_37_6 0
U_37_7 0
U_37_8 0
U_37_9 0
U_38_0 0
U_38_1 1
U_38_2 0
U_38_3 0
U_38_4 0
U_38_5 0
U_38_6 0
U_38_7 0
U_38_8 0
U_38_9 0
U_39_0 0
U_39_1 0
U_39_2 0
U_39_3 0
U_39_4 0
U_39_5 0
U_39_6 0
U_39_7 0
U_39_8 0
U_39_9 0
U_40_0 3
U_40_1 0
U_40_2 0
U_40_3 0
U_40_4 0
U_40_5 0
U_40_6 0
U_40_7 0
U_40_8 0
U_40_9 0
U_41_0 0
U_41_1 4
U_41_2 0
U_41_3 0
U_41_4 0
U_41_5 0
U_41_6 0
U_41_7 0
U_41_8 0
U_41_9 0
U_42_0 0
U_42_1 4
U_42_2 0
U_42_3 0
U_42_4 0
U_42_5 0
U_42_6 2
U_42_7 0
U_42_8 0
U_42_9 0
U_43_0 0
U_43_1 0
U_43_2 0
U_43_3 0
U_43_4 0
U_43_5 0
U_43_6 0
U_43_7 0
U_43_8 0
U_43_9 0
U_44_0 0
U_44_1 0
U_44_2 0
U_44_3 0
U_44_4 0
U_44_5 0
U_44_6 0
U_44_7 0
U_44_8 0
U_44_9 0
U_45_0 0
U_45_1 0
U_45_2 0
U_45_3 0
U_45_4 0
U_45_5 0
U_45_6 0
U_45_7 0
U_45_8 2
U_45_9 0
Ire_0_0 0
Ire_0_1 1
Ire_0_2 1
Ire_0_3 0
Ire_0_4 0
Ire_0_5 0
Ire_0_6 0
Ire_0_7 0
Ire_0_8 0
Ire_0_9 0
Ire_1_0 0
Ire_1_1 0
Ire_1_2 0
Ire_1_3 0
Ire_1_4 0
Ire_1_5 0
Ire_1_6 1
Ire_1_7 0
Ire_1_8 1
Ire_1_9 0
Ire_2_0 0
Ire_2_1 1
Ire_2_2 0
Ire_2_3 0
Ire_2_4 0
Ire_2_5 0
Ire_2_6 1
Ire_2_7 0
Ire_2_8 0
Ire_2_9 0
Ire_3_0 1
Ire_3_1 0
Ire_3_2 0
Ire_3_3 0
Ire_3_4 1
Ire_3_5 0
Ire_3_6 0
Ire_3_7 0
Ire_3_8 0
Ire_3_9 0
Ire_4_0 1
Ire_4_1 0
Ire_4_2 0
Ire_4_3 1
Ire_4_4 1
Ire_4_5 0
Ire_4_6 1
Ire_4_7 1
Ire_4_8 0
Ire_4_9 0
Ire_5_0 0
Ire_5_1 0
Ire_5_2 0
Ire_5_3 0
Ire_5_4 0
Ire_5_5 0
Ire_5_6 0
Ire_5_7 0
Ire_5_8 0
Ire_5_9 0
Ire_6_0 0
Ire_6_1 0
Ire_6_2 0
Ire_6_3 0
Ire_6_4 0
Ire_6_5 0
Ire_6_6 0
Ire_6_7 0
Ire_6_8 0
Ire_6_9 0
Ire_7_0 0
Ire_7_1 0
Ire_7_2 0
Ire_7_3 1
Ire_7_4 0
Ire_7_5 0
Ire_7_6 1
Ire_7_7 0
Ire_7_8 0
Ire_7_9 0
Ire_8_0 1
Ire_8_1 1
Ire_8_2 0
Ire_8_3 1
Ire_8_4 0
Ire_8_5 0
Ire_8_6 1
Ire_8_7 1
Ire_8_8 0
Ire_8_9 0
Ire_9_0 0
Ire_9_1 0
Ire_9_2 0
Ire_9_3 0
Ire_9_4 0
Ire_9_5 0
Ire_9_6 1
Ire_9_7 0
Ire_9_8 0
Ire_9_9 0
Ire_10_0 0
Ire_10_1 0
Ire_10_2 0
Ire_10_3 1
Ire_10_4 0
Ire_10_5 0
Ire_10_6 0
Ire_10_7 0
Ire_10_8 0
Ire_10_9 0
Ire_11_0 0
Ire_11_1 1
Ire_11_2 0
Ire_11_3 1
Ire_11_4 0
Ire_11_5 0
Ire_11_6 1
Ire_11_7 0
Ire_11_8 0
Ire_11_9 0
Ire_12_0 0
Ire_12_1 1
Ire_12_2 1
Ire_12_3 0
Ire_12_4 0
Ire_12_5 0
Ire_12_6 1
Ire_12_7 0
Ire_12_8 0
Ire_12_9 0
Ire_13_0 0
Ire_13_1 1
Ire_13_2 0
Ire_13_3 0
Ire_13_4 0
Ire_13_5 0
Ire_13_6 1
Ire_13_7 0
Ire_13_8 1
Ire_13_9 0
III_0_0 1
III_0_1 0
III_0_2 0
III_0_3 1
III_0_4 1
III_0_5 1
III_0_6 1
III_0_7 1
III_0_8 1
III_0_9 1
III_1_0 1
III_1_1 1
III_1_2 1
III_1_3 1
III_1_4 1
III_1_5 1
III_1_6 0
III_1_7 1
III_1_8 0
III_1_9 1
III_2_0 1
III_2_1 0
III_2_2 1
III_2_3 1
III_2_4 1
III_2_5 1
III_2_6 0
III_2_7 1
III_2_8 1
III_2_9 1
III_3_0 0
III_3_1 1
III_3_2 1
III_3_3 1
III_3_4 0
III_3_5 1
III_3_6 1
III_3_7 1
III_3_8 1
III_3_9 1
III_4_0 0
III_4_1 1
III_4_2 1
III_4_3 0
III_4_4 0
III_4_5 1
III_4_6 0
III_4_7 0
III_4_8 1
III_4_9 1
III_5_0 1
III_5_1 1
III_5_2 1
III_5_3 1
III_5_4 1
III_5_5 1
III_5_6 1
III_5_7 1
III_5_8 1
III_5_9 1
III_6_0 1
III_6_1 1
III_6_2 1
III_6_3 1
III_6_4 1
III_6_5 1
III_6_6 1
III_6_7 1
III_6_8 1
III_6_9 1
III_7_0 1
III_7_1 1
III_7_2 1
III_7_3 0
III_7_4 1
III_7_5 1
III_7_6 0
III_7_7 1
III_7_8 1
III_7_9 1
III_8_0 0
III_8_1 0
III_8_2 1
III_8_3 0
III_8_4 1
III_8_5 1
III_8_6 0
III_8_7 0
III_8_8 1
III_8_9 1
III_9_0 1
III_9_1 1
III_9_2 1
III_9_3 1
III_9_4 1
III_9_5 1
III_9_6 0
III_9_7 1
III_9_8 1
III_9_9 1
III_10_0 1
III_10_1 1
III_10_2 1
III_10_3 0
III_10_4 1
III_10_5 1
III_10_6 1
III_10_7 1
III_10_8 1
III_10_9 1
III_11_0 1
III_11_1 0
III_11_2 1
III_11_3 0
III_11_4 1
III_11_5 1
III_11_6 0
III_11_7 1
III_11_8 1
III_11_9 1
III_12_0 1
III_12_1 0
III_12_2 0
III_12_3 1
III_12_4 1
III_12_5 1
III_12_6 0
III_12_7 1
III_12_8 1
III_12_9 1
III_13_0 1
III_13_1 0
III_13_2 1
III_13_3 1
III_13_4 1
III_13_5 1
III_13_6 0
III_13_7 1
III_13_8 0
III_13_9 1
I_0 1
I_1 1
I_2 1
I_3 1
I_4 1
I_5 0
I_6 0
I_7 1
I_8 1
I_9 1
I_10 1
I_11 1
I_12 1
I_13 1
NNN_0 2
NNN_1 2
NNN_2 2
NNN_3 2
NNN_4 5
NNN_5 0
NNN_6 0
NNN_7 2
NNN_8 5
NNN_9 1
NNN_10 1
NNN_11 3
NNN_12 3
NNN_13 3
X_0_0 0
X_0_1 0
X_0_2 0
X_0_3 0
X_0_4 0
X_0_5 0
X_0_6 0
X_0_7 0
X_0_8 0
X_0_9 0
X_1_0 0
X_1_1 0
X_1_2 0
X_1_3 0
X_1_4 0
X_1_5 0
X_1_6 0
X_1_7 0
X_1_8 0
X_1_9 0
X_2_0 0
X_2_1 0
X_2_2 0
X_2_3 0
X_2_4 0
X_2_5 0
X_2_6 1
X_2_7 0
X_2_8 0
X_2_9 0
X_3_0 0
X_3_1 5
X_3_2 0
X_3_3 0
X_3_4 0
X_3_5 0
X_3_6 0
X_3_7 0
X_3_8 0
X_3_9 0
X_4_0 0
X_4_1 0
X_4_2 1
X_4_3 0
X_4_4 0
X_4_5 0
X_4_6 0
X_4_7 0
X_4_8 0
X_4_9 0
X_5_0 0
X_5_1 0
X_5_2 0
X_5_3 0
X_5_4 0
X_5_5 0
X_5_6 0
X_5_7 0
X_5_8 0
X_5_9 0
X_6_0 0
X_6_1 0
X_6_2 0
X_6_3 0
X_6_4 0
X_6_5 0
X_6_6 0
X_6_7 0
X_6_8 0
X_6_9 0
X_7_0 0
X_7_1 0
X_7_2 0
X_7_3 0
X_7_4 0
X_7_5 0
X_7_6 0
X_7_7 0
X_7_8 0
X_7_9 0
X_8_0 0
X_8_1 0
X_8_2 0
X_8_3 0
X_8_4 0
X_8_5 0
X_8_6 0
X_8_7 0
X_8_8 0
X_8_9 0
X_9_0 0
X_9_1 0
X_9_2 0
X_9_3 0
X_9_4 0
X_9_5 0
X_9_6 0
X_9_7 0
X_9_8 0
X_9_9 0
X_10_0 0
X_10_1 0
X_10_2 0
X_10_3 0
X_10_4 0
X_10_5 0
X_10_6 0
X_10_7 0
X_10_8 0
X_10_9 0
X_11_0 0
X_11_1 0
X_11_2 0
X_11_3 0
X_11_4 0
X_11_5 0
X_11_6 0
X_11_7 0
X_11_8 0
X_11_9 0
X_12_0 0
X_12_1 0
X_12_2 0
X_12_3 0
X_12_4 0
X_12_5 0
X_12_6 0
X_12_7 0
X_12_8 0
X_12_9 0
X_13_0 0
X_13_1 0
X_13_2 0
X_13_3 0
X_13_4 0
X_13_5 0
X_13_6 0
X_13_7 0
X_13_8 0
X_13_9 0
X_14_0 0
X_14_1 0
X_14_2 0
X_14_3 0
X_14_4 0
X_14_5 0
X_14_6 0
X_14_7 0
X_14_8 0
X_14_9 0
X_15_0 0
X_15_1 0
X_15_2 0
X_15_3 0
X_15_4 0
X_15_5 0
X_15_6 0
X_15_7 0
X_15_8 0
X_15_9 0
X_16_0 0
X_16_1 0
X_16_2 0
X_16_3 0
X_16_4 0
X_16_5 0
X_16_6 0
X_16_7 0
X_16_8 0
X_16_9 0
X_17_0 0
X_17_1 0
X_17_2 0
X_17_3 0
X_17_4 0
X_17_5 0
X_17_6 0
X_17_7 0
X_17_8 0
X_17_9 0
X_18_0 0
X_18_1 0
X_18_2 0
X_18_3 0
X_18_4 0
X_18_5 0
X_18_6 0
X_18_7 0
X_18_8 0
X_18_9 0
X_19_0 0
X_19_1 0
X_19_2 0
X_19_3 0
X_19_4 0
X_19_5 0
X_19_6 0
X_19_7 0
X_19_8 0
X_19_9 0
X_20_0 0
X_20_1 0
X_20_2 0
X_20_3 0
X_20_4 0
X_20_5 0
X_20_6 0
X_20_7 0
X_20_8 0
X_20_9 0
X_21_0 0
X_21_1 0
X_21_2 0
X_21_3 0
X_21_4 0
X_21_5 0
X_21_6 0
X_21_7 0
X_21_8 0
X_21_9 0
X_22_0 0
X_22_1 0
X_22_2 0
X_22_3 0
X_22_4 0
X_22_5 0
X_22_6 0
X_22_7 0
X_22_8 0
X_22_9 0
X_23_0 0
X_23_1 0
X_23_2 0
X_23_3 0
X_23_4 0
X_23_5 0
X_23_6 0
X_23_7 0
X_23_8 0
X_23_9 0
X_24_0 0
X_24_1 0
X_24_2 0
X_24_3 0
X_24_4 0
X_24_5 0
X_24_6 0
X_24_7 0
X_24_8 0
X_24_9 0
X_25_0 0
X_25_1 0
X_25_2 0
X_25_3 0
X_25_4 0
X_25_5 0
X_25_6 0
X_25_7 0
X_25_8 0
X_25_9 0
X_26_0 0
X_26_1 0
X_26_2 0
X_26_3 0
X_26_4 0
X_26_5 0
X_26_6 0
X_26_7 0
X_26_8 0
X_26_9 0
X_27_0 0
X_27_1 0
X_27_2 0
X_27_3 0
X_27_4 0
X_27_5 0
X_27_6 0
X_27_7 0
X_27_8 0
X_27_9 0
X_28_0 0
X_28_1 0
X_28_2 0
X_28_3 0
X_28_4 0
X_28_5 0
X_28_6 0
X_28_7 0
X_28_8 0
X_28_9 0
X_29_0 0
X_29_1 0
X_29_2 0
X_29_3 0
X_29_4 0
X_29_5 0
X_29_6 0
X_29_7 0
X_29_8 0
X_29_9 0
X_30_0 0
X_30_1 0
X_30_2 0
X_30_3 0
X_30_4 0
X_30_5 0
X_30_6 0
X_30_7 0
X_30_8 0
X_30_9 0
X_31_0 1
X_31_1 0
X_31_2 0
X_31_3 0
X_31_4 0
X_31_5 0
X_31_6 0
X_31_7 0
X_31_8 0
X_31_9 0
X_32_0 0
X_32_1 1
X_32_2 0
X_32_3 0
X_32_4 0
X_32_5 0
X_32_6 0
X_32_7 0
X_32_8 0
X_32_9 0
X_33_0 0
X_33_1 0
X_33_2 0
X_33_3 0
X_33_4 0
X_33_5 0
X_33_6 0
X_33_7 0
X_33_8 0
X_33_9 0
X_34_0 0
X_34_1 0
X_34_2 0
X_34_3 0
X_34_4 0
X_34_5 0
X_34_6 0
X_34_7 0
X_34_8 0
X_34_9 0
X_35_0 0
X_35_1 0
X_35_2 0
X_35_3 0
X_35_4 0
X_35_5 0
X_35_6 0
X_35_7 0
X_35_8 0
X_35_9 0
X_36_0 0
X_36_1 0
X_36_2 0
X_36_3 0
X_36_4 0
X_36_5 0
X_36_6 0
X_36_7 0
X_36_8 0
X_36_9 0
X_37_0 0
X_37_1 0
X_37_2 0
X_37_3 0
X_37_4 0
X_37_5 0
X_37_6 0
X_37_7 0
X_37_8 0
X_37_9 0
X_38_0 0
X_38_1 0
X_38_2 0
X_38_3 0
X_38_4 0
X_38_5 0
X_38_6 0
X_38_7 0
X_38_8 0
X_38_9 0
X_39_0 0
X_39_1 0
X_39_2 0
X_39_3 0
X_39_4 0
X_39_5 0
X_39_6 0
X_39_7 0
X_39_8 0
X_39_9 0
X_40_0 3
X_40_1 0
X_40_2 0
X_40_3 0
X_40_4 0
X_40_5 0
X_40_6 0
X_40_7 0
X_40_8 0
X_40_9 0
X_41_0 0
X_41_1 0
X_41_2 0
X_41_3 0
X_41_4 0
X_41_5 0
X_41_6 0
X_41_7 0
X_41_8 0
X_41_9 0
X_42_0 0
X_42_1 0
X_42_2 0
X_42_3 0
X_42_4 0
X_42_5 0
X_42_6 0
X_42_7 0
X_42_8 0
X_42_9 0
X_43_0 0
X_43_1 0
X_43_2 0
X_43_3 0
X_43_4 0
X_43_5 0
X_43_6 0
X_43_7 0
X_43_8 0
X_43_9 0
X_44_0 0
X_44_1 0
X_44_2 0
X_44_3 0
X_44_4 0
X_44_5 0
X_44_6 0
X_44_7 0
X_44_8 0
X_44_9 0
X_45_0 0
X_45_1 0
X_45_2 0
X_45_3 0
X_45_4 0
X_45_5 0
X_45_6 0
X_45_7 0
X_45_8 0
X_45_9 0
Ynode_0_0 4
Ynode_0_1 6
Ynode_0_2 3
Ynode_0_3 0
Ynode_0_4 0
Ynode_0_5 0
Ynode_0_6 1
Ynode_0_7 0
Ynode_0_8 0
Ynode_0_9 0
Ynode_1_0 0
Ynode_1_1 5
Ynode_1_2 1
Ynode_1_3 0
Ynode_1_4 0
Ynode_1_5 0
Ynode_1_6 3
Ynode_1_7 0
Ynode_1_8 1
Ynode_1_9 0
Ynode_2_0 0
Ynode_2_1 3
Ynode_2_2 4
Ynode_2_3 0
Ynode_2_4 0
Ynode_2_5 0
Ynode_2_6 3
Ynode_2_7 0
Ynode_2_8 0
Ynode_2_9 0
Ynode_3_0 0
Ynode_3_1 0
Ynode_3_2 0
Ynode_3_3 3
Ynode_3_4 2
Ynode_3_5 0
Ynode_3_6 0
Ynode_3_7 0
Ynode_3_8 0
Ynode_3_9 0
Ynode_4_0 0
Ynode_4_1 0
Ynode_4_2 0
Ynode_4_3 2
Ynode_4_4 3
Ynode_4_5 0
Ynode_4_6 2
Ynode_4_7 2
Ynode_4_8 0
Ynode_4_9 0
Ynode_5_0 0
Ynode_5_1 0
Ynode_5_2 0
Ynode_5_3 0
Ynode_5_4 2
Ynode_5_5 2
Ynode_5_6 0
Ynode_5_7 0
Ynode_5_8 0
Ynode_5_9 0
Ynode_6_0 0
Ynode_6_1 0
Ynode_6_2 0
Ynode_6_3 0
Ynode_6_4 0
Ynode_6_5 0
Ynode_6_6 1
Ynode_6_7 0
Ynode_6_8 0
Ynode_6_9 0
Ynode_7_0 0
Ynode_7_1 0
Ynode_7_2 0
Ynode_7_3 2
Ynode_7_4 0
Ynode_7_5 0
Ynode_7_6 2
Ynode_7_7 2
Ynode_7_8 0
Ynode_7_9 0
Ynode_8_0 0
Ynode_8_1 3
Ynode_8_2 0
Ynode_8_3 2
Ynode_8_4 0
Ynode_8_5 0
Ynode_8_6 4
Ynode_8_7 3
Ynode_8_8 0
Ynode_8_9 0
Ynode_9_0 1
Ynode_9_1 0
Ynode_9_2 0
Ynode_9_3 0
Ynode_9_4 0
Ynode_9_5 0
Ynode_9_6 1
Ynode_9_7 0
Ynode_9_8 2
Ynode_9_9 0
Ynode_10_0 0
Ynode_10_1 1
Ynode_10_2 0
Ynode_10_3 1
Ynode_10_4 0
Ynode_10_5 0
Ynode_10_6 0
Ynode_10_7 0
Ynode_10_8 0
Ynode_10_9 0
Ynode_11_0 0
Ynode_11_1 1
Ynode_11_2 0
Ynode_11_3 0
Ynode_11_4 0
Ynode_11_5 0
Ynode_11_6 1
Ynode_11_7 0
Ynode_11_8 0
Ynode_11_9 0
Ynode_12_0 0
Ynode_12_1 1
Ynode_12_2 0
Ynode_12_3 0
Ynode_12_4 0
Ynode_12_5 0
Ynode_12_6 0
Ynode_12_7 0
Ynode_12_8 0
Ynode_12_9 0
Ynode_13_0 3
Ynode_13_1 4
Ynode_13_2 0
Ynode_13_3 0
Ynode_13_4 0
Ynode_13_5 0
Ynode_13_6 2
Ynode_13_7 0
Ynode_13_8 2
Ynode_13_9 3
Total 12
c 261
